NAME: instance_1973
TYPE: TSP
DIMENSION: 20
EDGE_WEIGHT_TYPE: EUC_2D
NODE_COORD_SECTION
0 55.47 86.87
1 43.62 75.30
2 84.76 18.87
3 72.42 48.46
4 15.36 35.11
5 23.75 39.71
6 17.01 29.16
7 93.19 2.29
8 6.26 18.62
9 38.13 75.03
10 35.74 3.70
11 85.64 79.18
12 46.10 16.77
13 34.78 91.13
14 20.26 36.21
15 83.65 81.10
16 17.81 26.50
17 79.62 1.14
18 10.56 71.30
19 64.22 79.93
EOF
